NAME : LPS-n34-m272
COMMENT : (Lartu-Peter-Santi Plot, instance 12672 out of 39200. 34 customers.)
TYPE : CVRP
DIMENSION : 34
EDGE_WEIGHT_TYPE : EUC_2D
CAPACITY : 105
NODE_COORD_SECTION
 1 90 80
 2 46 93
 3 27 9
 4 42 64
 5 23 68
 6 36 35
 7 4 77
 8 91 35
 9 87 42
 10 82 78
 11 0 40
 12 58 78
 13 89 19
 14 72 41
 15 28 28
 16 75 69
 17 10 100
 18 57 38
 19 100 85
 20 19 79
 21 34 86
 22 66 24
 23 7 72
 24 2 14
 25 96 5
 26 54 67
 27 5 82
 28 90 3
 29 83 26
 30 98 81
 31 50 88
 32 81 35
 33 45 35
 34 66 90
DEMAND_SECTION
1 0
2 30
3 82
4 38
5 100
6 12
7 10
8 61
9 91
10 99
11 45
12 37
13 24
14 79
15 4
16 84
17 101
18 57
19 11
20 13
21 22
22 72
23 99
24 51
25 43
26 10
27 75
28 45
29 52
30 27
31 83
32 97
33 66
34 1
DEPOT_SECTION
 1
 -1
EOF
